c nIsolatedPIs 0
c maxPI 11
p cnf 484 1420
c gate 12 -2 -9 0
-2 -12 0
-9 -12 0
2 9 12 0
c gate 13 2 9 0
2 -13 0
9 -13 0
-2 -9 13 0
c gate 14 -12 -13 0
-12 -14 0
-13 -14 0
12 13 14 0
c gate 15 9 10 0
9 -15 0
10 -15 0
-9 -10 15 0
c gate 16 8 -15 0
8 -16 0
-15 -16 0
-8 15 16 0
c gate 17 14 -16 0
14 -17 0
-16 -17 0
-14 16 17 0
c gate 18 3 -17 0
3 -18 0
-17 -18 0
-3 17 18 0
c gate 19 3 -10 0
3 -19 0
-10 -19 0
-3 10 19 0
c gate 20 9 19 0
9 -20 0
19 -20 0
-9 -19 20 0
c gate 21 -3 10 0
-3 -21 0
10 -21 0
3 -10 21 0
c gate 22 -2 -21 0
-2 -22 0
-21 -22 0
2 21 22 0
c gate 23 -20 22 0
-20 -23 0
22 -23 0
20 -22 23 0
c gate 24 2 -3 0
2 -24 0
-3 -24 0
-2 3 24 0
c gate 25 -8 -13 0
-8 -25 0
-13 -25 0
8 13 25 0
c gate 26 -24 25 0
-24 -26 0
25 -26 0
24 -25 26 0
c gate 27 -23 26 0
-23 -27 0
26 -27 0
23 -26 27 0
c gate 28 8 10 0
8 -28 0
10 -28 0
-8 -10 28 0
c gate 29 -14 28 0
-14 -29 0
28 -29 0
14 -28 29 0
c gate 30 7 -10 0
7 -30 0
-10 -30 0
-7 10 30 0
c gate 31 -7 10 0
-7 -31 0
10 -31 0
7 -10 31 0
c gate 32 -30 -31 0
-30 -32 0
-31 -32 0
30 31 32 0
c gate 33 -2 -3 0
-2 -33 0
-3 -33 0
2 3 33 0
c gate 34 8 9 0
8 -34 0
9 -34 0
-8 -9 34 0
c gate 35 33 34 0
33 -35 0
34 -35 0
-33 -34 35 0
c gate 36 -32 35 0
-32 -36 0
35 -36 0
32 -35 36 0
c gate 37 -29 -36 0
-29 -37 0
-36 -37 0
29 36 37 0
c gate 38 -27 37 0
-27 -38 0
37 -38 0
27 -37 38 0
c gate 39 -18 38 0
-18 -39 0
38 -39 0
18 -38 39 0
c gate 40 -2 -11 0
-2 -40 0
-11 -40 0
2 11 40 0
c gate 41 -3 40 0
-3 -41 0
40 -41 0
3 -40 41 0
c gate 42 4 5 0
4 -42 0
5 -42 0
-4 -5 42 0
c gate 43 8 -9 0
8 -43 0
-9 -43 0
-8 9 43 0
c gate 44 -42 43 0
-42 -44 0
43 -44 0
42 -43 44 0
c gate 45 -7 8 0
-7 -45 0
8 -45 0
7 -8 45 0
c gate 46 7 -9 0
7 -46 0
-9 -46 0
-7 9 46 0
c gate 47 -7 9 0
-7 -47 0
9 -47 0
7 -9 47 0
c gate 48 -5 -47 0
-5 -48 0
-47 -48 0
5 47 48 0
c gate 49 -46 -48 0
-46 -49 0
-48 -49 0
46 48 49 0
c gate 50 -45 49 0
-45 -50 0
49 -50 0
45 -49 50 0
c gate 51 -44 -50 0
-44 -51 0
-50 -51 0
44 50 51 0
c gate 52 39 -51 0
39 -52 0
-51 -52 0
-39 51 52 0
c gate 53 41 -52 0
41 -53 0
-52 -53 0
-41 52 53 0
c gate 54 -3 -38 0
-3 -54 0
-38 -54 0
3 38 54 0
c gate 55 3 39 0
3 -55 0
39 -55 0
-3 -39 55 0
c gate 56 -54 -55 0
-54 -56 0
-55 -56 0
54 55 56 0
c gate 57 2 11 0
2 -57 0
11 -57 0
-2 -11 57 0
c gate 58 -40 -57 0
-40 -58 0
-57 -58 0
40 57 58 0
c gate 59 -56 58 0
-56 -59 0
58 -59 0
56 -58 59 0
c gate 60 -11 39 0
-11 -60 0
39 -60 0
11 -39 60 0
c gate 61 2 -54 0
2 -61 0
-54 -61 0
-2 54 61 0
c gate 62 -60 61 0
-60 -62 0
61 -62 0
60 -61 62 0
c gate 63 -59 -62 0
-59 -63 0
-62 -63 0
59 62 63 0
c gate 64 -53 63 0
-53 -64 0
63 -64 0
53 -63 64 0
c gate 65 -10 11 0
-10 -65 0
11 -65 0
10 -11 65 0
c gate 66 10 -11 0
10 -66 0
-11 -66 0
-10 11 66 0
c gate 67 -65 -66 0
-65 -67 0
-66 -67 0
65 66 67 0
c gate 68 -10 67 0
-10 -68 0
67 -68 0
10 -67 68 0
c gate 69 33 68 0
33 -69 0
68 -69 0
-33 -68 69 0
c gate 70 -64 -69 0
-64 -70 0
-69 -70 0
64 69 70 0
c gate 71 -11 51 0
-11 -71 0
51 -71 0
11 -51 71 0
c gate 72 -10 71 0
-10 -72 0
71 -72 0
10 -71 72 0
c gate 73 -9 11 0
-9 -73 0
11 -73 0
9 -11 73 0
c gate 74 -15 -73 0
-15 -74 0
-73 -74 0
15 73 74 0
c gate 75 -51 -74 0
-51 -75 0
-74 -75 0
51 74 75 0
c gate 76 8 -75 0
8 -76 0
-75 -76 0
-8 75 76 0
c gate 77 -72 76 0
-72 -77 0
76 -77 0
72 -76 77 0
c gate 78 -8 -9 0
-8 -78 0
-9 -78 0
8 9 78 0
c gate 79 -11 -78 0
-11 -79 0
-78 -79 0
11 78 79 0
c gate 80 49 -79 0
49 -80 0
-79 -80 0
-49 79 80 0
c gate 81 -8 -80 0
-8 -81 0
-80 -81 0
8 80 81 0
c gate 82 -71 81 0
-71 -82 0
81 -82 0
71 -81 82 0
c gate 83 10 11 0
10 -83 0
11 -83 0
-10 -11 83 0
c gate 84 -82 -83 0
-82 -84 0
-83 -84 0
82 83 84 0
c gate 85 -77 84 0
-77 -85 0
84 -85 0
77 -84 85 0
c gate 86 -51 85 0
-51 -86 0
85 -86 0
51 -85 86 0
c gate 87 70 86 0
70 -87 0
86 -87 0
-70 -86 87 0
c gate 88 51 -85 0
51 -88 0
-85 -88 0
-51 85 88 0
c gate 89 -86 -88 0
-86 -89 0
-88 -89 0
86 88 89 0
c gate 90 -70 89 0
-70 -90 0
89 -90 0
70 -89 90 0
c gate 91 33 -90 0
33 -91 0
-90 -91 0
-33 90 91 0
c gate 92 -87 91 0
-87 -92 0
91 -92 0
87 -91 92 0
c gate 93 -39 92 0
-39 -93 0
92 -93 0
39 -92 93 0
c gate 94 -64 92 0
-64 -94 0
92 -94 0
64 -92 94 0
c gate 95 -24 -94 0
-24 -95 0
-94 -95 0
24 94 95 0
c gate 96 9 -95 0
9 -96 0
-95 -96 0
-9 95 96 0
c gate 97 -93 -96 0
-93 -97 0
-96 -97 0
93 96 97 0
c gate 98 -11 -97 0
-11 -98 0
-97 -98 0
11 97 98 0
c gate 99 9 -24 0
9 -99 0
-24 -99 0
-9 24 99 0
c gate 100 11 64 0
11 -100 0
64 -100 0
-11 -64 100 0
c gate 101 99 -100 0
99 -101 0
-100 -101 0
-99 100 101 0
c gate 102 39 -101 0
39 -102 0
-101 -102 0
-39 101 102 0
c gate 103 -92 102 0
-92 -103 0
102 -103 0
92 -102 103 0
c gate 104 -98 -103 0
-98 -104 0
-103 -104 0
98 103 104 0
c gate 105 4 7 0
4 -105 0
7 -105 0
-4 -7 105 0
c gate 106 1 105 0
1 -106 0
105 -106 0
-1 -105 106 0
c gate 107 5 78 0
5 -107 0
78 -107 0
-5 -78 107 0
c gate 108 106 107 0
106 -108 0
107 -108 0
-106 -107 108 0
c gate 109 51 -108 0
51 -109 0
-108 -109 0
-51 108 109 0
c gate 110 -7 109 0
-7 -110 0
109 -110 0
7 -109 110 0
c gate 111 7 -109 0
7 -111 0
-109 -111 0
-7 109 111 0
c gate 112 -8 -10 0
-8 -112 0
-10 -112 0
8 10 112 0
c gate 113 -28 -112 0
-28 -113 0
-112 -113 0
28 112 113 0
c gate 114 -6 8 0
-6 -114 0
8 -114 0
6 -8 114 0
c gate 115 -9 -114 0
-9 -115 0
-114 -115 0
9 114 115 0
c gate 116 113 -115 0
113 -116 0
-115 -116 0
-113 115 116 0
c gate 117 -111 116 0
-111 -117 0
116 -117 0
111 -116 117 0
c gate 118 -110 117 0
-110 -118 0
117 -118 0
110 -117 118 0
c gate 119 -6 -7 0
-6 -119 0
-7 -119 0
6 7 119 0
c gate 120 -8 -119 0
-8 -120 0
-119 -120 0
8 119 120 0
c gate 121 32 120 0
32 -121 0
120 -121 0
-32 -120 121 0
c gate 122 -6 -30 0
-6 -122 0
-30 -122 0
6 30 122 0
c gate 123 7 -8 0
7 -123 0
-8 -123 0
-7 8 123 0
c gate 124 -45 -123 0
-45 -124 0
-123 -124 0
45 123 124 0
c gate 125 6 -124 0
6 -125 0
-124 -125 0
-6 124 125 0
c gate 126 -122 -125 0
-122 -126 0
-125 -126 0
122 125 126 0
c gate 127 7 -113 0
7 -127 0
-113 -127 0
-7 113 127 0
c gate 128 -114 -127 0
-114 -128 0
-127 -128 0
114 127 128 0
c gate 129 126 -128 0
126 -129 0
-128 -129 0
-126 128 129 0
c gate 130 -121 -129 0
-121 -130 0
-129 -130 0
121 129 130 0
c gate 131 -109 130 0
-109 -131 0
130 -131 0
109 -130 131 0
c gate 132 8 -126 0
8 -132 0
-126 -132 0
-8 126 132 0
c gate 133 109 -132 0
109 -133 0
-132 -133 0
-109 132 133 0
c gate 134 9 -133 0
9 -134 0
-133 -134 0
-9 133 134 0
c gate 135 -131 134 0
-131 -135 0
134 -135 0
131 -134 135 0
c gate 136 -31 45 0
-31 -136 0
45 -136 0
31 -45 136 0
c gate 137 -127 -136 0
-127 -137 0
-136 -137 0
127 136 137 0
c gate 138 6 -9 0
6 -138 0
-9 -138 0
-6 9 138 0
c gate 139 -137 138 0
-137 -139 0
138 -139 0
137 -138 139 0
c gate 140 -6 47 0
-6 -140 0
47 -140 0
6 -47 140 0
c gate 141 112 140 0
112 -141 0
140 -141 0
-112 -140 141 0
c gate 142 -139 -141 0
-139 -142 0
-141 -142 0
139 141 142 0
c gate 143 -135 142 0
-135 -143 0
142 -143 0
135 -142 143 0
c gate 144 -118 143 0
-118 -144 0
143 -144 0
118 -143 144 0
c gate 145 -9 -144 0
-9 -145 0
-144 -145 0
9 144 145 0
c gate 146 9 144 0
9 -146 0
144 -146 0
-9 -144 146 0
c gate 147 -145 -146 0
-145 -147 0
-146 -147 0
145 146 147 0
c gate 148 8 -66 0
8 -148 0
-66 -148 0
-8 66 148 0
c gate 149 -8 -67 0
-8 -149 0
-67 -149 0
8 67 149 0
c gate 150 -148 -149 0
-148 -150 0
-149 -150 0
148 149 150 0
c gate 151 -147 150 0
-147 -151 0
150 -151 0
147 -150 151 0
c gate 152 83 -144 0
83 -152 0
-144 -152 0
-83 144 152 0
c gate 153 -109 144 0
-109 -153 0
144 -153 0
109 -144 153 0
c gate 154 109 -144 0
109 -154 0
-144 -154 0
-109 144 154 0
c gate 155 -153 -154 0
-153 -155 0
-154 -155 0
153 154 155 0
c gate 156 -11 155 0
-11 -156 0
155 -156 0
11 -155 156 0
c gate 157 -152 -156 0
-152 -157 0
-156 -157 0
152 156 157 0
c gate 158 68 144 0
68 -158 0
144 -158 0
-68 -144 158 0
c gate 159 9 -158 0
9 -159 0
-158 -159 0
-9 158 159 0
c gate 160 -157 159 0
-157 -160 0
159 -160 0
157 -159 160 0
c gate 161 65 109 0
65 -161 0
109 -161 0
-65 -109 161 0
c gate 162 11 -109 0
11 -162 0
-109 -162 0
-11 109 162 0
c gate 163 71 -108 0
71 -163 0
-108 -163 0
-71 108 163 0
c gate 164 -162 -163 0
-162 -164 0
-163 -164 0
162 163 164 0
c gate 165 10 -164 0
10 -165 0
-164 -165 0
-10 164 165 0
c gate 166 -161 -165 0
-161 -166 0
-165 -166 0
161 165 166 0
c gate 167 144 -166 0
144 -167 0
-166 -167 0
-144 166 167 0
c gate 168 -9 167 0
-9 -168 0
167 -168 0
9 -167 168 0
c gate 169 -8 -161 0
-8 -169 0
-161 -169 0
8 161 169 0
c gate 170 -168 169 0
-168 -170 0
169 -170 0
168 -169 170 0
c gate 171 -160 170 0
-160 -171 0
170 -171 0
160 -170 171 0
c gate 172 -9 -158 0
-9 -172 0
-158 -172 0
9 158 172 0
c gate 173 -10 164 0
-10 -173 0
164 -173 0
10 -164 173 0
c gate 174 -144 173 0
-144 -174 0
173 -174 0
144 -173 174 0
c gate 175 -167 -174 0
-167 -175 0
-174 -175 0
167 174 175 0
c gate 176 172 175 0
172 -176 0
175 -176 0
-172 -175 176 0
c gate 177 -156 -165 0
-156 -177 0
-165 -177 0
156 165 177 0
c gate 178 10 155 0
10 -178 0
155 -178 0
-10 -155 178 0
c gate 179 -177 -178 0
-177 -179 0
-178 -179 0
177 178 179 0
c gate 180 9 -65 0
9 -180 0
-65 -180 0
-9 65 180 0
c gate 181 -179 180 0
-179 -181 0
180 -181 0
179 -180 181 0
c gate 182 -176 -181 0
-176 -182 0
-181 -182 0
176 181 182 0
c gate 183 8 -152 0
8 -183 0
-152 -183 0
-8 152 183 0
c gate 184 -182 183 0
-182 -184 0
183 -184 0
182 -183 184 0
c gate 185 -171 -184 0
-171 -185 0
-184 -185 0
171 184 185 0
c gate 186 -151 -185 0
-151 -186 0
-185 -186 0
151 185 186 0
c gate 187 -109 186 0
-109 -187 0
186 -187 0
109 -186 187 0
c gate 188 39 -155 0
39 -188 0
-155 -188 0
-39 155 188 0
c gate 189 -38 -144 0
-38 -189 0
-144 -189 0
38 144 189 0
c gate 190 -188 -189 0
-188 -190 0
-189 -190 0
188 189 190 0
c gate 191 41 -190 0
41 -191 0
-190 -191 0
-41 190 191 0
c gate 192 63 -191 0
63 -192 0
-191 -192 0
-63 191 192 0
c gate 193 -3 144 0
-3 -193 0
144 -193 0
3 -144 193 0
c gate 194 -10 40 0
-10 -194 0
40 -194 0
10 -40 194 0
c gate 195 -38 194 0
-38 -195 0
194 -195 0
38 -194 195 0
c gate 196 193 195 0
193 -196 0
195 -196 0
-193 -195 196 0
c gate 197 69 -196 0
69 -197 0
-196 -197 0
-69 196 197 0
c gate 198 192 197 0
192 -198 0
197 -198 0
-192 -197 198 0
c gate 199 -192 -197 0
-192 -199 0
-197 -199 0
192 197 199 0
c gate 200 -198 -199 0
-198 -200 0
-199 -200 0
198 199 200 0
c gate 201 109 -186 0
109 -201 0
-186 -201 0
-109 186 201 0
c gate 202 200 -201 0
200 -202 0
-201 -202 0
-200 201 202 0
c gate 203 -187 202 0
-187 -203 0
202 -203 0
187 -202 203 0
c gate 204 187 -200 0
187 -204 0
-200 -204 0
-187 200 204 0
c gate 205 -186 198 0
-186 -205 0
198 -205 0
186 -198 205 0
c gate 206 33 -205 0
33 -206 0
-205 -206 0
-33 205 206 0
c gate 207 -204 206 0
-204 -207 0
206 -207 0
204 -206 207 0
c gate 208 -203 207 0
-203 -208 0
207 -208 0
203 -207 208 0
c gate 209 -11 -208 0
-11 -209 0
-208 -209 0
11 208 209 0
c gate 210 11 208 0
11 -210 0
208 -210 0
-11 -208 210 0
c gate 211 -209 -210 0
-209 -211 0
-210 -211 0
209 210 211 0
c gate 212 -11 192 0
-11 -212 0
192 -212 0
11 -192 212 0
c gate 213 11 -192 0
11 -213 0
-192 -213 0
-11 192 213 0
c gate 214 -212 -213 0
-212 -214 0
-213 -214 0
212 213 214 0
c gate 215 9 -214 0
9 -215 0
-214 -215 0
-9 214 215 0
c gate 216 211 215 0
211 -216 0
215 -216 0
-211 -215 216 0
c gate 217 -9 192 0
-9 -217 0
192 -217 0
9 -192 217 0
c gate 218 -211 217 0
-211 -218 0
217 -218 0
211 -217 218 0
c gate 219 -216 -218 0
-216 -219 0
-218 -219 0
216 218 219 0
c gate 220 99 -193 0
99 -220 0
-193 -220 0
-99 193 220 0
c gate 221 -3 9 0
-3 -221 0
9 -221 0
3 -9 221 0
c gate 222 153 221 0
153 -222 0
221 -222 0
-153 -221 222 0
c gate 223 -9 154 0
-9 -223 0
154 -223 0
9 -154 223 0
c gate 224 -222 -223 0
-222 -224 0
-223 -224 0
222 223 224 0
c gate 225 -7 -224 0
-7 -225 0
-224 -225 0
7 224 225 0
c gate 226 -3 -9 0
-3 -226 0
-9 -226 0
3 9 226 0
c gate 227 154 226 0
154 -227 0
226 -227 0
-154 -226 227 0
c gate 228 -225 -227 0
-225 -228 0
-227 -228 0
225 227 228 0
c gate 229 -2 -228 0
-2 -229 0
-228 -229 0
2 228 229 0
c gate 230 -2 -7 0
-2 -230 0
-7 -230 0
2 7 230 0
c gate 231 3 145 0
3 -231 0
145 -231 0
-3 -145 231 0
c gate 232 2 -47 0
2 -232 0
-47 -232 0
-2 47 232 0
c gate 233 193 -232 0
193 -233 0
-232 -233 0
-193 232 233 0
c gate 234 -231 -233 0
-231 -234 0
-233 -234 0
231 233 234 0
c gate 235 -230 -234 0
-230 -235 0
-234 -235 0
230 234 235 0
c gate 236 -229 -235 0
-229 -236 0
-235 -236 0
229 235 236 0
c gate 237 -220 236 0
-220 -237 0
236 -237 0
220 -236 237 0
c gate 238 39 -237 0
39 -238 0
-237 -238 0
-39 237 238 0
c gate 239 -219 238 0
-219 -239 0
238 -239 0
219 -238 239 0
c gate 240 -39 -237 0
-39 -240 0
-237 -240 0
39 237 240 0
c gate 241 -208 240 0
-208 -241 0
240 -241 0
208 -240 241 0
c gate 242 39 237 0
39 -242 0
237 -242 0
-39 -237 242 0
c gate 243 208 242 0
208 -243 0
242 -243 0
-208 -242 243 0
c gate 244 -241 -243 0
-241 -244 0
-243 -244 0
241 243 244 0
c gate 245 9 -244 0
9 -245 0
-244 -245 0
-9 244 245 0
c gate 246 -9 -240 0
-9 -246 0
-240 -246 0
9 240 246 0
c gate 247 -242 246 0
-242 -247 0
246 -247 0
242 -246 247 0
c gate 248 -208 247 0
-208 -248 0
247 -248 0
208 -247 248 0
c gate 249 -245 -248 0
-245 -249 0
-248 -249 0
245 248 249 0
c gate 250 11 -249 0
11 -250 0
-249 -250 0
-11 249 250 0
c gate 251 9 -237 0
9 -251 0
-237 -251 0
-9 237 251 0
c gate 252 -9 236 0
-9 -252 0
236 -252 0
9 -236 252 0
c gate 253 -251 -252 0
-251 -253 0
-252 -253 0
251 252 253 0
c gate 254 -242 -253 0
-242 -254 0
-253 -254 0
242 253 254 0
c gate 255 -211 254 0
-211 -255 0
254 -255 0
211 -254 255 0
c gate 256 39 214 0
39 -256 0
214 -256 0
-39 -214 256 0
c gate 257 11 -39 0
11 -257 0
-39 -257 0
-11 39 257 0
c gate 258 -60 -257 0
-60 -258 0
-257 -258 0
60 257 258 0
c gate 259 -9 -11 0
-9 -259 0
-11 -259 0
9 11 259 0
c gate 260 9 11 0
9 -260 0
11 -260 0
-9 -11 260 0
c gate 261 -259 -260 0
-259 -261 0
-260 -261 0
259 260 261 0
c gate 262 258 261 0
258 -262 0
261 -262 0
-258 -261 262 0
c gate 263 212 262 0
212 -263 0
262 -263 0
-212 -262 263 0
c gate 264 -256 -263 0
-256 -264 0
-263 -264 0
256 263 264 0
c gate 265 -208 264 0
-208 -265 0
264 -265 0
208 -264 265 0
c gate 266 214 262 0
214 -266 0
262 -266 0
-214 -262 266 0
c gate 267 208 -266 0
208 -267 0
-266 -267 0
-208 266 267 0
c gate 268 237 -267 0
237 -268 0
-267 -268 0
-237 267 268 0
c gate 269 -265 268 0
-265 -269 0
268 -269 0
265 -268 269 0
c gate 270 241 259 0
241 -270 0
259 -270 0
-241 -259 270 0
c gate 271 253 -258 0
253 -271 0
-258 -271 0
-253 258 271 0
c gate 272 -209 271 0
-209 -272 0
271 -272 0
209 -271 272 0
c gate 273 -270 -272 0
-270 -273 0
-272 -273 0
270 272 273 0
c gate 274 -269 273 0
-269 -274 0
273 -274 0
269 -273 274 0
c gate 275 -255 274 0
-255 -275 0
274 -275 0
255 -274 275 0
c gate 276 -250 275 0
-250 -276 0
275 -276 0
250 -275 276 0
c gate 277 -239 276 0
-239 -277 0
276 -277 0
239 -276 277 0
c gate 278 104 277 0
104 -278 0
277 -278 0
-104 -277 278 0
c gate 279 -104 -277 0
-104 -279 0
-277 -279 0
104 277 279 0
c gate 280 -92 208 0
-92 -280 0
208 -280 0
92 -208 280 0
c gate 281 92 -208 0
92 -281 0
-208 -281 0
-92 208 281 0
c gate 282 53 192 0
53 -282 0
192 -282 0
-53 -192 282 0
c gate 283 64 191 0
64 -283 0
191 -283 0
-64 -191 283 0
c gate 284 78 119 0
78 -284 0
119 -284 0
-78 -119 284 0
c gate 285 -196 -284 0
-196 -285 0
-284 -285 0
196 284 285 0
c gate 286 69 -285 0
69 -286 0
-285 -286 0
-69 285 286 0
c gate 287 -283 -286 0
-283 -287 0
-286 -287 0
283 286 287 0
c gate 288 -282 287 0
-282 -288 0
287 -288 0
282 -287 288 0
c gate 289 -3 11 0
-3 -289 0
11 -289 0
3 -11 289 0
c gate 290 -5 6 0
-5 -290 0
6 -290 0
5 -6 290 0
c gate 291 5 -6 0
5 -291 0
-6 -291 0
-5 6 291 0
c gate 292 -290 -291 0
-290 -292 0
-291 -292 0
290 291 292 0
c gate 293 -10 33 0
-10 -293 0
33 -293 0
10 -33 293 0
c gate 294 -292 293 0
-292 -294 0
293 -294 0
292 -293 294 0
c gate 295 8 24 0
8 -295 0
24 -295 0
-8 -24 295 0
c gate 296 -19 -294 0
-19 -296 0
-294 -296 0
19 294 296 0
c gate 297 -295 296 0
-295 -297 0
296 -297 0
295 -296 297 0
c gate 298 57 297 0
57 -298 0
297 -298 0
-57 -297 298 0
c gate 299 -294 -298 0
-294 -299 0
-298 -299 0
294 298 299 0
c gate 300 -289 -299 0
-289 -300 0
-299 -300 0
289 299 300 0
c gate 301 -1 -105 0
-1 -301 0
-105 -301 0
1 105 301 0
c gate 302 -106 -301 0
-106 -302 0
-301 -302 0
106 301 302 0
c gate 303 -8 -302 0
-8 -303 0
-302 -303 0
8 302 303 0
c gate 304 -4 -5 0
-4 -304 0
-5 -304 0
4 5 304 0
c gate 305 -42 -304 0
-42 -305 0
-304 -305 0
42 304 305 0
c gate 306 8 -305 0
8 -306 0
-305 -306 0
-8 305 306 0
c gate 307 -9 -306 0
-9 -307 0
-306 -307 0
9 306 307 0
c gate 308 -303 307 0
-303 -308 0
307 -308 0
303 -307 308 0
c gate 309 -124 308 0
-124 -309 0
308 -309 0
124 -308 309 0
c gate 310 -10 -309 0
-10 -310 0
-309 -310 0
10 309 310 0
c gate 311 6 7 0
6 -311 0
7 -311 0
-6 -7 311 0
c gate 312 -119 -311 0
-119 -312 0
-311 -312 0
119 311 312 0
c gate 313 10 -312 0
10 -313 0
-312 -313 0
-10 312 313 0
c gate 314 -10 -307 0
-10 -314 0
-307 -314 0
10 307 314 0
c gate 315 -11 -314 0
-11 -315 0
-314 -315 0
11 314 315 0
c gate 316 -313 315 0
-313 -316 0
315 -316 0
313 -315 316 0
c gate 317 -310 316 0
-310 -317 0
316 -317 0
310 -316 317 0
c gate 318 11 124 0
11 -318 0
124 -318 0
-11 -124 318 0
c gate 319 308 310 0
308 -319 0
310 -319 0
-308 -310 319 0
c gate 320 -318 -319 0
-318 -320 0
-319 -320 0
318 319 320 0
c gate 321 -317 320 0
-317 -321 0
320 -321 0
317 -320 321 0
c gate 322 58 -321 0
58 -322 0
-321 -322 0
-58 321 322 0
c gate 323 -58 321 0
-58 -323 0
321 -323 0
58 -321 323 0
c gate 324 -322 -323 0
-322 -324 0
-323 -324 0
322 323 324 0
c gate 325 2 -297 0
2 -325 0
-297 -325 0
-2 297 325 0
c gate 326 -2 296 0
-2 -326 0
296 -326 0
2 -296 326 0
c gate 327 -325 -326 0
-325 -327 0
-326 -327 0
325 326 327 0
c gate 328 -3 -40 0
-3 -328 0
-40 -328 0
3 40 328 0
c gate 329 327 328 0
327 -329 0
328 -329 0
-327 -328 329 0
c gate 330 324 329 0
324 -330 0
329 -330 0
-324 -329 330 0
c gate 331 -300 -330 0
-300 -331 0
-330 -331 0
300 330 331 0
c gate 332 9 -331 0
9 -332 0
-331 -332 0
-9 331 332 0
c gate 333 -297 -318 0
-297 -333 0
-318 -333 0
297 318 333 0
c gate 334 260 333 0
260 -334 0
333 -334 0
-260 -333 334 0
c gate 335 -11 321 0
-11 -335 0
321 -335 0
11 -321 335 0
c gate 336 -318 -335 0
-318 -336 0
-335 -336 0
318 335 336 0
c gate 337 -9 -297 0
-9 -337 0
-297 -337 0
9 297 337 0
c gate 338 9 297 0
9 -338 0
297 -338 0
-9 -297 338 0
c gate 339 -337 -338 0
-337 -339 0
-338 -339 0
337 338 339 0
c gate 340 -336 339 0
-336 -340 0
339 -340 0
336 -339 340 0
c gate 341 -334 -340 0
-334 -341 0
-340 -341 0
334 340 341 0
c gate 342 3 -341 0
3 -342 0
-341 -342 0
-3 341 342 0
c gate 343 -3 297 0
-3 -343 0
297 -343 0
3 -297 343 0
c gate 344 -9 -19 0
-9 -344 0
-19 -344 0
9 19 344 0
c gate 345 -343 344 0
-343 -345 0
344 -345 0
343 -344 345 0
c gate 346 221 297 0
221 -346 0
297 -346 0
-221 -297 346 0
c gate 347 -345 -346 0
-345 -347 0
-346 -347 0
345 346 347 0
c gate 348 336 -347 0
336 -348 0
-347 -348 0
-336 347 348 0
c gate 349 226 -327 0
226 -349 0
-327 -349 0
-226 327 349 0
c gate 350 324 349 0
324 -350 0
349 -350 0
-324 -349 350 0
c gate 351 -348 -350 0
-348 -351 0
-350 -351 0
348 350 351 0
c gate 352 -342 351 0
-342 -352 0
351 -352 0
342 -351 352 0
c gate 353 -332 352 0
-332 -353 0
352 -353 0
332 -352 353 0
c gate 354 -11 -316 0
-11 -354 0
-316 -354 0
11 316 354 0
c gate 355 326 354 0
326 -355 0
354 -355 0
-326 -354 355 0
c gate 356 -3 -318 0
-3 -356 0
-318 -356 0
3 318 356 0
c gate 357 -325 356 0
-325 -357 0
356 -357 0
325 -356 357 0
c gate 358 -355 357 0
-355 -358 0
357 -358 0
355 -357 358 0
c gate 359 19 -315 0
19 -359 0
-315 -359 0
-19 315 359 0
c gate 360 -298 -359 0
-298 -360 0
-359 -360 0
298 359 360 0
c gate 361 -358 360 0
-358 -361 0
360 -361 0
358 -360 361 0
c gate 362 9 -361 0
9 -362 0
-361 -362 0
-9 361 362 0
c gate 363 -316 -318 0
-316 -363 0
-318 -363 0
316 318 363 0
c gate 364 -58 363 0
-58 -364 0
363 -364 0
58 -363 364 0
c gate 365 58 -363 0
58 -365 0
-363 -365 0
-58 363 365 0
c gate 366 -327 -365 0
-327 -366 0
-365 -366 0
327 365 366 0
c gate 367 -364 366 0
-364 -367 0
366 -367 0
364 -366 367 0
c gate 368 333 -354 0
333 -368 0
-354 -368 0
-333 354 368 0
c gate 369 -3 -368 0
-3 -369 0
-368 -369 0
3 368 369 0
c gate 370 -367 369 0
-367 -370 0
369 -370 0
367 -369 370 0
c gate 371 344 -370 0
344 -371 0
-370 -371 0
-344 370 371 0
c gate 372 -362 -371 0
-362 -372 0
-371 -372 0
362 371 372 0
c gate 373 -353 372 0
-353 -373 0
372 -373 0
353 -372 373 0
c gate 374 353 -372 0
353 -374 0
-372 -374 0
-353 372 374 0
c gate 375 -373 -374 0
-373 -375 0
-374 -375 0
373 374 375 0
c gate 376 288 375 0
288 -376 0
375 -376 0
-288 -375 376 0
c gate 377 -4 -9 0
-4 -377 0
-9 -377 0
4 9 377 0
c gate 378 8 -377 0
8 -378 0
-377 -378 0
-8 377 378 0
c gate 379 6 -78 0
6 -379 0
-78 -379 0
-6 78 379 0
c gate 380 -378 379 0
-378 -380 0
379 -380 0
378 -379 380 0
c gate 381 114 -377 0
114 -381 0
-377 -381 0
-114 377 381 0
c gate 382 -380 -381 0
-380 -382 0
-381 -382 0
380 381 382 0
c gate 383 5 -382 0
5 -383 0
-382 -383 0
-5 382 383 0
c gate 384 -5 34 0
-5 -384 0
34 -384 0
5 -34 384 0
c gate 385 -107 -384 0
-107 -385 0
-384 -385 0
107 384 385 0
c gate 386 1 -385 0
1 -386 0
-385 -386 0
-1 385 386 0
c gate 387 -1 78 0
-1 -387 0
78 -387 0
1 -78 387 0
c gate 388 305 387 0
305 -388 0
387 -388 0
-305 -387 388 0
c gate 389 43 290 0
43 -389 0
290 -389 0
-43 -290 389 0
c gate 390 -384 -389 0
-384 -390 0
-389 -390 0
384 389 390 0
c gate 391 -388 390 0
-388 -391 0
390 -391 0
388 -390 391 0
c gate 392 -386 391 0
-386 -392 0
391 -392 0
386 -391 392 0
c gate 393 -383 392 0
-383 -393 0
392 -393 0
383 -392 393 0
c gate 394 105 -393 0
105 -394 0
-393 -394 0
-105 393 394 0
c gate 395 -383 385 0
-383 -395 0
385 -395 0
383 -385 395 0
c gate 396 -389 395 0
-389 -396 0
395 -396 0
389 -395 396 0
c gate 397 7 -396 0
7 -397 0
-396 -397 0
-7 396 397 0
c gate 398 -4 -397 0
-4 -398 0
-397 -398 0
4 397 398 0
c gate 399 -8 259 0
-8 -399 0
259 -399 0
8 -259 399 0
c gate 400 -398 399 0
-398 -400 0
399 -400 0
398 -399 400 0
c gate 401 -394 400 0
-394 -401 0
400 -401 0
394 -400 401 0
c gate 402 -124 261 0
-124 -402 0
261 -402 0
124 -261 402 0
c gate 403 79 -402 0
79 -403 0
-402 -403 0
-79 402 403 0
c gate 404 -393 403 0
-393 -404 0
403 -404 0
393 -403 404 0
c gate 405 -34 -78 0
-34 -405 0
-78 -405 0
34 78 405 0
c gate 406 318 -405 0
318 -406 0
-405 -406 0
-318 405 406 0
c gate 407 9 -395 0
9 -407 0
-395 -407 0
-9 395 407 0
c gate 408 402 -407 0
402 -408 0
-407 -408 0
-402 407 408 0
c gate 409 -406 -408 0
-406 -409 0
-408 -409 0
406 408 409 0
c gate 410 -404 409 0
-404 -410 0
409 -410 0
404 -409 410 0
c gate 411 -401 410 0
-401 -411 0
410 -411 0
401 -410 411 0
c gate 412 -3 -411 0
-3 -412 0
-411 -412 0
3 411 412 0
c gate 413 -11 -412 0
-11 -413 0
-412 -413 0
11 412 413 0
c gate 414 11 412 0
11 -414 0
412 -414 0
-11 -412 414 0
c gate 415 3 9 0
3 -415 0
9 -415 0
-3 -9 415 0
c gate 416 7 415 0
7 -416 0
415 -416 0
-7 -415 416 0
c gate 417 6 33 0
6 -417 0
33 -417 0
-6 -33 417 0
c gate 418 -33 -221 0
-33 -418 0
-221 -418 0
33 221 418 0
c gate 419 -417 -418 0
-417 -419 0
-418 -419 0
417 418 419 0
c gate 420 -416 -419 0
-416 -420 0
-419 -420 0
416 419 420 0
c gate 421 8 -420 0
8 -421 0
-420 -421 0
-8 420 421 0
c gate 422 -415 -417 0
-415 -422 0
-417 -422 0
415 417 422 0
c gate 423 -124 -422 0
-124 -423 0
-422 -423 0
124 422 423 0
c gate 424 -421 -423 0
-421 -424 0
-423 -424 0
421 423 424 0
c gate 425 -3 -424 0
-3 -425 0
-424 -425 0
3 424 425 0
c gate 426 -2 10 0
-2 -426 0
10 -426 0
2 -10 426 0
c gate 427 2 -10 0
2 -427 0
-10 -427 0
-2 10 427 0
c gate 428 -426 -427 0
-426 -428 0
-427 -428 0
426 427 428 0
c gate 429 -425 428 0
-425 -429 0
428 -429 0
425 -428 429 0
c gate 430 -414 429 0
-414 -430 0
429 -430 0
414 -429 430 0
c gate 431 -413 430 0
-413 -431 0
430 -431 0
413 -430 431 0
c gate 432 -415 424 0
-415 -432 0
424 -432 0
415 -424 432 0
c gate 433 -10 432 0
-10 -433 0
432 -433 0
10 -432 433 0
c gate 434 2 -34 0
2 -434 0
-34 -434 0
-2 34 434 0
c gate 435 -99 434 0
-99 -435 0
434 -435 0
99 -434 435 0
c gate 436 -11 -435 0
-11 -436 0
-435 -436 0
11 435 436 0
c gate 437 -57 -436 0
-57 -437 0
-436 -437 0
57 436 437 0
c gate 438 -433 437 0
-433 -438 0
437 -438 0
433 -437 438 0
c gate 439 411 -438 0
411 -439 0
-438 -439 0
-411 438 439 0
c gate 440 194 -432 0
194 -440 0
-432 -440 0
-194 432 440 0
c gate 441 83 435 0
83 -441 0
435 -441 0
-83 -435 441 0
c gate 442 -440 -441 0
-440 -442 0
-441 -442 0
440 441 442 0
c gate 443 -411 442 0
-411 -443 0
442 -443 0
411 -442 443 0
c gate 444 -3 -443 0
-3 -444 0
-443 -444 0
3 443 444 0
c gate 445 -439 444 0
-439 -445 0
444 -445 0
439 -444 445 0
c gate 446 -2 11 0
-2 -446 0
11 -446 0
2 -11 446 0
c gate 447 -21 -446 0
-21 -447 0
-446 -447 0
21 446 447 0
c gate 448 -67 447 0
-67 -448 0
447 -448 0
67 -447 448 0
c gate 449 -432 448 0
-432 -449 0
448 -449 0
432 -448 449 0
c gate 450 -73 -425 0
-73 -450 0
-425 -450 0
73 425 450 0
c gate 451 -289 -428 0
-289 -451 0
-428 -451 0
289 428 451 0
c gate 452 -450 451 0
-450 -452 0
451 -452 0
450 -451 452 0
c gate 453 -449 -452 0
-449 -453 0
-452 -453 0
449 452 453 0
c gate 454 -445 453 0
-445 -454 0
453 -454 0
445 -453 454 0
c gate 455 -431 454 0
-431 -455 0
454 -455 0
431 -454 455 0
c gate 456 -428 -432 0
-428 -456 0
-432 -456 0
428 432 456 0
c gate 457 428 432 0
428 -457 0
432 -457 0
-428 -432 457 0
c gate 458 4 397 0
4 -458 0
397 -458 0
-4 -397 458 0
c gate 459 400 -458 0
400 -459 0
-458 -459 0
-400 458 459 0
c gate 460 -396 403 0
-396 -460 0
403 -460 0
396 -403 460 0
c gate 461 409 -460 0
409 -461 0
-460 -461 0
-409 460 461 0
c gate 462 -459 461 0
-459 -462 0
461 -462 0
459 -461 462 0
c gate 463 457 -462 0
457 -463 0
-462 -463 0
-457 462 463 0
c gate 464 -456 -463 0
-456 -464 0
-463 -464 0
456 463 464 0
c gate 465 -11 -464 0
-11 -465 0
-464 -465 0
11 464 465 0
c gate 466 -442 -462 0
-442 -466 0
-462 -466 0
442 462 466 0
c gate 467 438 462 0
438 -467 0
462 -467 0
-438 -462 467 0
c gate 468 -466 -467 0
-466 -468 0
-467 -468 0
466 467 468 0
c gate 469 -465 468 0
-465 -469 0
468 -469 0
465 -468 469 0
c gate 470 -3 -469 0
-3 -470 0
-469 -470 0
3 469 470 0
c gate 471 3 -456 0
3 -471 0
-456 -471 0
-3 456 471 0
c gate 472 457 462 0
457 -472 0
462 -472 0
-457 -462 472 0
c gate 473 -471 -472 0
-471 -473 0
-472 -473 0
471 472 473 0
c gate 474 11 -473 0
11 -474 0
-473 -474 0
-11 473 474 0
c gate 475 -449 -474 0
-449 -475 0
-474 -475 0
449 474 475 0
c gate 476 -470 475 0
-470 -476 0
475 -476 0
470 -475 476 0
c gate 477 -455 476 0
-455 -477 0
476 -477 0
455 -476 477 0
c gate 478 455 -476 0
455 -478 0
-476 -478 0
-455 476 478 0
c gate 479 -477 -478 0
-477 -479 0
-478 -479 0
477 478 479 0
c gate 480 376 479 0
376 -480 0
479 -480 0
-376 -479 480 0
c gate 481 -281 480 0
-281 -481 0
480 -481 0
281 -480 481 0
c gate 482 -280 481 0
-280 -482 0
481 -482 0
280 -481 482 0
c gate 483 -279 482 0
-279 -483 0
482 -483 0
279 -482 483 0
c gate 484 -278 483 0
-278 -484 0
483 -484 0
278 -483 484 0
c PO
-484 0
